n = 15;
m = 47;

max_len = 8;
word_lens = [ 4, 4, 4, 4, 4, 4, 5, 5, 5, 5, 5, 5, 5, 5, 5, 5, 5, 5, 5, 5, 5, 5, 5, 5, 6, 6, 6, 6, 6, 6, 6, 6, 6, 6, 6, 6, 6, 6, 6, 6, 6, 7, 7, 7, 7, 7, 8 ];
words = [| S, O, U, L, E, E, E, E | Y, O, G, I, E, E, E, E | Y, O, G, A, E, E, E, E | M, I, N, D, E, E, E, E | S, A, T, I, E, E, E, E | G, U, R, U, E, E, E, E | I, N, D, I, A, E, E, E | J, N, A, N, A, E, E, E | V, E, D, A, S, E, E, E | A, S, A, N, A, E, E, E | Z, U, M, B, A, E, E, E | T, U, M, M, O, E, E, E | R, E, I, K, I, E, E, E | V, Y, A, S, A, E, E, E | B, O, D, H, I, E, E, E | V, I, D, Y, A, E, E, E | S, H, I, V, A, E, E, E | Y, A, M, A, S, E, E, E | H, A, T, H, A, E, E, E | T, A, P, A, S, E, E, E | Y, A, J, N, A, E, E, E | N, A, N, A, K, E, E, E | K, A, R, M, A, E, E, E | P, O, O, J, A, E, E, E | P, A, N, I, N, I, E, E | M, O, K, S, H, A, E, E | C, A, R, D, I, O, E, E | N, I, Y, A, M, A, E, E | B, H, A, K, T, I, E, E | C, H, A, K, R, A, E, E | S, U, F, I, S, M, E, E | C, A, N, C, E, R, E, E | A, S, T, H, M, A, E, E | T, A, N, T, R, A, E, E | D, H, A, R, M, A, E, E | T, A, O, I, S, T, E, E | S, U, T, R, A, S, E, E | S, I, D, D, H, A, E, E | S, T, R, A, B, O, E, E | Q, I, G, O, N, G, E, E | S, A, H, A, J, A, E, E | W, O, R, K, O, U, T, E | J, A, I, N, I, S, M, E | F, I, T, N, E, S, S, E | S, R, A, M, A, N, A, E | S, A, D, H, A, N, A, E | M, A, H, A, Y, A, N, A |];

pos_var_strat = first_fail;
pos_val_strat = indomain_median;
